g3 1 1 0 # unnamed problem generated by COEK
 8 0 1 0 0 0 # vars, constraints, objectives, ranges, eqns, lcons
 0 1 # nonlinear constraints, objectives
 0 0 # network constraints: nonlinear, linear
 0 8 0 # nonlinear vars in constraints, objectives, both
 0 0 0 1 # linear network variables; functions; arith, flags
 0 0 0 0 0 # discrete variables: binary, integer, nonlinear (b,c,o)
 0 8 # nonzeros in Jacobian, gradients
 0 0 # max name lengths: constraints, variables
 0 0 0 0 0 # common exprs: b,c,o,c1,o1
O0 0
o0
o54
18
o5
o54
9
o2
o2
n2
v0
n1
o2
o2
n3
v1
n1
o2
o2
n4
v2
n1
o2
o2
n5
v3
n1
o2
o2
n6
v4
n1
o2
o2
n7
v5
n1
o2
o2
n8
v6
n1
o2
o2
n9
v7
n1
n-1
n2
o5
o54
9
o2
o2
n2
v0
n2
o2
o2
n3
v1
n2
o2
o2
n4
v2
n2
o2
o2
n5
v3
n2
o2
o2
n6
v4
n2
o2
o2
n7
v5
n2
o2
o2
n8
v6
n2
o2
o2
n9
v7
n2
n-1
n2
o5
o54
9
o2
o2
n2
v0
n3
o2
o2
n3
v1
n3
o2
o2
n4
v2
n3
o2
o2
n5
v3
n3
o2
o2
n6
v4
n3
o2
o2
n7
v5
n3
o2
o2
n8
v6
n3
o2
o2
n9
v7
n3
n-1
n2
o5
o54
9
o2
o2
n2
v0
n4
o2
o2
n3
v1
n4
o2
o2
n4
v2
n4
o2
o2
n5
v3
n4
o2
o2
n6
v4
n4
o2
o2
n7
v5
n4
o2
o2
n8
v6
n4
o2
o2
n9
v7
n4
n-1
n2
o5
o54
9
o2
o2
n2
v0
n5
o2
o2
n3
v1
n5
o2
o2
n4
v2
n5
o2
o2
n5
v3
n5
o2
o2
n6
v4
n5
o2
o2
n7
v5
n5
o2
o2
n8
v6
n5
o2
o2
n9
v7
n5
n-1
n2
o5
o54
9
o2
o2
n2
v0
n6
o2
o2
n3
v1
n6
o2
o2
n4
v2
n6
o2
o2
n5
v3
n6
o2
o2
n6
v4
n6
o2
o2
n7
v5
n6
o2
o2
n8
v6
n6
o2
o2
n9
v7
n6
n-1
n2
o5
o54
9
o2
o2
n2
v0
n7
o2
o2
n3
v1
n7
o2
o2
n4
v2
n7
o2
o2
n5
v3
n7
o2
o2
n6
v4
n7
o2
o2
n7
v5
n7
o2
o2
n8
v6
n7
o2
o2
n9
v7
n7
n-1
n2
o5
o54
9
o2
o2
n2
v0
n8
o2
o2
n3
v1
n8
o2
o2
n4
v2
n8
o2
o2
n5
v3
n8
o2
o2
n6
v4
n8
o2
o2
n7
v5
n8
o2
o2
n8
v6
n8
o2
o2
n9
v7
n8
n-1
n2
o5
o54
9
o2
o2
n2
v0
n9
o2
o2
n3
v1
n9
o2
o2
n4
v2
n9
o2
o2
n5
v3
n9
o2
o2
n6
v4
n9
o2
o2
n7
v5
n9
o2
o2
n8
v6
n9
o2
o2
n9
v7
n9
n-1
n2
o5
o54
9
o2
o2
n2
v0
n10
o2
o2
n3
v1
n10
o2
o2
n4
v2
n10
o2
o2
n5
v3
n10
o2
o2
n6
v4
n10
o2
o2
n7
v5
n10
o2
o2
n8
v6
n10
o2
o2
n9
v7
n10
n-1
n2
o5
o54
9
o2
o2
n2
v0
n11
o2
o2
n3
v1
n11
o2
o2
n4
v2
n11
o2
o2
n5
v3
n11
o2
o2
n6
v4
n11
o2
o2
n7
v5
n11
o2
o2
n8
v6
n11
o2
o2
n9
v7
n11
n-1
n2
o5
o54
9
o2
o2
n2
v0
n12
o2
o2
n3
v1
n12
o2
o2
n4
v2
n12
o2
o2
n5
v3
n12
o2
o2
n6
v4
n12
o2
o2
n7
v5
n12
o2
o2
n8
v6
n12
o2
o2
n9
v7
n12
n-1
n2
o5
o54
9
o2
o2
n2
v0
n13
o2
o2
n3
v1
n13
o2
o2
n4
v2
n13
o2
o2
n5
v3
n13
o2
o2
n6
v4
n13
o2
o2
n7
v5
n13
o2
o2
n8
v6
n13
o2
o2
n9
v7
n13
n-1
n2
o5
o54
9
o2
o2
n2
v0
n14
o2
o2
n3
v1
n14
o2
o2
n4
v2
n14
o2
o2
n5
v3
n14
o2
o2
n6
v4
n14
o2
o2
n7
v5
n14
o2
o2
n8
v6
n14
o2
o2
n9
v7
n14
n-1
n2
o5
o54
9
o2
o2
n2
v0
n15
o2
o2
n3
v1
n15
o2
o2
n4
v2
n15
o2
o2
n5
v3
n15
o2
o2
n6
v4
n15
o2
o2
n7
v5
n15
o2
o2
n8
v6
n15
o2
o2
n9
v7
n15
n-1
n2
o5
o54
9
o2
o2
n2
v0
n16
o2
o2
n3
v1
n16
o2
o2
n4
v2
n16
o2
o2
n5
v3
n16
o2
o2
n6
v4
n16
o2
o2
n7
v5
n16
o2
o2
n8
v6
n16
o2
o2
n9
v7
n16
n-1
n2
o5
o54
9
o2
o2
n2
v0
n17
o2
o2
n3
v1
n17
o2
o2
n4
v2
n17
o2
o2
n5
v3
n17
o2
o2
n6
v4
n17
o2
o2
n7
v5
n17
o2
o2
n8
v6
n17
o2
o2
n9
v7
n17
n-1
n2
o5
o54
9
o2
o2
n2
v0
n18
o2
o2
n3
v1
n18
o2
o2
n4
v2
n18
o2
o2
n5
v3
n18
o2
o2
n6
v4
n18
o2
o2
n7
v5
n18
o2
o2
n8
v6
n18
o2
o2
n9
v7
n18
n-1
n2
n2
x8
0 1
1 1
2 1
3 1
4 1
5 1
6 1
7 1
b
3
3
3
3
3
3
3
3
k7
0
0
0
0
0
0
0
G0 8
0 0
1 0
2 0
3 0
4 0
5 0
6 0
7 0
